benchmarks_CP/INST_36x36/25/inst36x36_25_65.dzn
S=6;
start=[|
-1,	-1,	-1,	-1,	-1,	-1,	-1,	-1,	-1,	-1,	-1,	34,	9,	-1,	32,	-1,	5,	-1,	-1,	25,	-1,	21,	-1,	-1,	-1,	-1,	22,	-1,	24,	-1,	1,	26,	28,	-1,	-1,	-1|
-1,	-1,	-1,	-1,	-1,	-1,	30,	-1,	36,	26,	-1,	-1,	-1,	-1,	-1,	-1,	-1,	-1,	-1,	22,	-1,	-1,	27,	-1,	-1,	6,	5,	20,	-1,	8,	11,	4,	-1,	21,	9,	-1|
-1,	-1,	-1,	-1,	-1,	-1,	-1,	-1,	18,	23,	-1,	-1,	-1,	-1,	-1,	-1,	-1,	36,	-1,	-1,	-1,	5,	35,	-1,	-1,	-1,	-1,	10,	9,	-1,	-1,	-1,	12,	-1,	-1,	22|
-1,	-1,	-1,	-1,	-1,	15,	-1,	-1,	-1,	12,	-1,	-1,	25,	-1,	11,	-1,	-1,	-1,	-1,	-1,	-1,	-1,	-1,	-1,	26,	2,	-1,	-1,	-1,	-1,	34,	33,	-1,	-1,	30,	-1|
-1,	9,	-1,	-1,	12,	-1,	-1,	-1,	-1,	-1,	-1,	-1,	-1,	-1,	-1,	-1,	-1,	-1,	-1,	-1,	-1,	18,	-1,	-1,	7,	-1,	-1,	33,	11,	35,	32,	19,	-1,	-1,	-1,	-1|
5,	-1,	-1,	33,	-1,	26,	-1,	19,	-1,	-1,	-1,	-1,	-1,	-1,	-1,	16,	-1,	-1,	-1,	36,	-1,	-1,	-1,	-1,	-1,	12,	-1,	-1,	-1,	-1,	-1,	-1,	-1,	17,	3,	25|
-1,	4,	13,	-1,	-1,	18,	-1,	-1,	-1,	-1,	-1,	-1,	22,	-1,	-1,	21,	-1,	-1,	1,	7,	-1,	-1,	-1,	-1,	25,	-1,	31,	-1,	-1,	12,	-1,	-1,	-1,	28,	-1,	-1|
-1,	-1,	-1,	9,	-1,	-1,	7,	-1,	-1,	-1,	18,	-1,	-1,	-1,	-1,	-1,	-1,	-1,	-1,	-1,	32,	-1,	-1,	-1,	-1,	-1,	-1,	-1,	-1,	29,	-1,	-1,	10,	-1,	-1,	-1|
-1,	-1,	-1,	-1,	-1,	-1,	15,	-1,	19,	-1,	-1,	-1,	-1,	-1,	-1,	20,	26,	-1,	24,	-1,	2,	-1,	-1,	-1,	-1,	18,	-1,	-1,	-1,	-1,	-1,	-1,	-1,	-1,	-1,	-1|
-1,	-1,	29,	-1,	-1,	-1,	22,	-1,	-1,	-1,	-1,	-1,	-1,	-1,	-1,	-1,	-1,	-1,	8,	-1,	-1,	-1,	36,	33,	19,	-1,	-1,	-1,	-1,	-1,	-1,	15,	-1,	-1,	-1,	-1|
-1,	-1,	-1,	-1,	7,	-1,	14,	-1,	-1,	-1,	36,	-1,	-1,	2,	16,	3,	-1,	30,	10,	-1,	-1,	-1,	-1,	29,	-1,	-1,	-1,	-1,	-1,	-1,	-1,	-1,	23,	35,	6,	-1|
-1,	-1,	-1,	-1,	-1,	19,	-1,	21,	-1,	-1,	-1,	-1,	-1,	-1,	-1,	-1,	-1,	-1,	28,	-1,	-1,	-1,	-1,	-1,	10,	-1,	-1,	-1,	-1,	-1,	-1,	-1,	2,	-1,	-1,	-1|
28,	-1,	-1,	17,	-1,	-1,	-1,	16,	-1,	-1,	-1,	-1,	-1,	33,	-1,	-1,	-1,	-1,	36,	-1,	-1,	15,	6,	8,	-1,	-1,	-1,	-1,	21,	22,	-1,	-1,	3,	-1,	-1,	26|
9,	-1,	19,	-1,	-1,	14,	-1,	-1,	-1,	28,	-1,	-1,	-1,	-1,	-1,	-1,	2,	24,	-1,	-1,	-1,	-1,	-1,	-1,	36,	32,	-1,	-1,	33,	-1,	-1,	-1,	6,	-1,	16,	35|
-1,	-1,	32,	-1,	-1,	-1,	-1,	-1,	1,	-1,	-1,	-1,	30,	-1,	-1,	12,	10,	-1,	4,	-1,	35,	-1,	-1,	-1,	-1,	-1,	-1,	-1,	-1,	-1,	-1,	-1,	-1,	11,	-1,	-1|
-1,	35,	33,	26,	-1,	-1,	-1,	9,	-1,	-1,	-1,	-1,	-1,	-1,	-1,	17,	-1,	-1,	30,	-1,	-1,	-1,	28,	-1,	4,	-1,	6,	-1,	-1,	-1,	-1,	-1,	-1,	-1,	-1,	-1|
-1,	-1,	-1,	-1,	-1,	-1,	-1,	-1,	-1,	-1,	21,	-1,	-1,	-1,	3,	-1,	-1,	28,	16,	-1,	-1,	-1,	-1,	-1,	-1,	-1,	-1,	-1,	-1,	34,	-1,	-1,	-1,	-1,	33,	-1|
-1,	-1,	11,	-1,	-1,	31,	-1,	6,	-1,	-1,	-1,	-1,	-1,	29,	-1,	-1,	-1,	-1,	-1,	-1,	-1,	13,	-1,	17,	-1,	10,	-1,	-1,	-1,	-1,	-1,	5,	-1,	-1,	12,	-1|
-1,	-1,	24,	-1,	-1,	-1,	-1,	-1,	-1,	-1,	-1,	-1,	-1,	-1,	27,	33,	-1,	-1,	-1,	13,	-1,	-1,	-1,	-1,	34,	-1,	-1,	-1,	-1,	-1,	-1,	36,	-1,	-1,	-1,	-1|
14,	32,	-1,	-1,	9,	-1,	-1,	5,	-1,	-1,	-1,	-1,	-1,	-1,	-1,	15,	-1,	-1,	-1,	-1,	-1,	-1,	-1,	-1,	-1,	20,	-1,	-1,	-1,	-1,	-1,	35,	30,	33,	18,	-1|
-1,	-1,	-1,	-1,	-1,	22,	-1,	-1,	12,	-1,	-1,	31,	8,	-1,	1,	-1,	-1,	-1,	-1,	-1,	-1,	-1,	-1,	-1,	-1,	-1,	36,	-1,	10,	17,	-1,	-1,	34,	-1,	-1,	-1|
25,	10,	-1,	-1,	-1,	23,	-1,	-1,	-1,	15,	-1,	-1,	3,	-1,	-1,	32,	-1,	-1,	-1,	4,	-1,	-1,	-1,	-1,	-1,	-1,	-1,	-1,	26,	-1,	-1,	-1,	-1,	-1,	11,	-1|
-1,	-1,	-1,	-1,	-1,	-1,	-1,	-1,	-1,	4,	-1,	20,	-1,	-1,	5,	-1,	-1,	26,	-1,	-1,	-1,	17,	-1,	1,	-1,	-1,	2,	-1,	7,	-1,	-1,	23,	-1,	-1,	14,	-1|
-1,	-1,	-1,	-1,	1,	33,	-1,	3,	-1,	-1,	-1,	-1,	-1,	-1,	-1,	-1,	-1,	29,	-1,	28,	-1,	34,	18,	-1,	-1,	-1,	-1,	-1,	-1,	-1,	-1,	-1,	-1,	-1,	-1,	-1|
11,	36,	26,	-1,	4,	-1,	12,	-1,	-1,	7,	-1,	29,	-1,	-1,	-1,	-1,	-1,	-1,	32,	5,	10,	-1,	22,	-1,	-1,	-1,	-1,	-1,	28,	31,	6,	-1,	-1,	18,	-1,	19|
-1,	-1,	8,	-1,	-1,	-1,	-1,	-1,	-1,	-1,	4,	-1,	-1,	-1,	-1,	-1,	-1,	-1,	-1,	-1,	-1,	-1,	-1,	-1,	-1,	-1,	3,	-1,	-1,	-1,	-1,	16,	-1,	-1,	-1,	12|
-1,	-1,	-1,	23,	-1,	-1,	-1,	-1,	-1,	9,	-1,	-1,	-1,	-1,	-1,	2,	-1,	-1,	-1,	-1,	-1,	-1,	-1,	18,	-1,	-1,	-1,	-1,	-1,	-1,	-1,	-1,	-1,	-1,	-1,	-1|
24,	-1,	-1,	21,	19,	-1,	20,	-1,	-1,	-1,	25,	-1,	-1,	18,	-1,	-1,	-1,	-1,	-1,	-1,	-1,	-1,	-1,	-1,	22,	-1,	-1,	-1,	-1,	-1,	-1,	-1,	-1,	-1,	-1,	-1|
-1,	16,	-1,	-1,	-1,	35,	1,	-1,	-1,	-1,	-1,	-1,	-1,	-1,	28,	29,	32,	-1,	-1,	-1,	-1,	23,	-1,	-1,	-1,	24,	-1,	-1,	-1,	-1,	-1,	20,	31,	-1,	34,	5|
-1,	7,	-1,	-1,	33,	-1,	-1,	-1,	-1,	-1,	-1,	-1,	17,	31,	-1,	-1,	4,	23,	-1,	-1,	-1,	-1,	-1,	-1,	-1,	-1,	10,	-1,	-1,	-1,	-1,	-1,	24,	-1,	-1,	-1|
-1,	-1,	-1,	-1,	-1,	-1,	-1,	-1,	-1,	14,	20,	-1,	-1,	-1,	-1,	28,	16,	-1,	5,	-1,	-1,	6,	-1,	2,	21,	-1,	-1,	-1,	22,	36,	31,	-1,	-1,	-1,	-1,	-1|
-1,	-1,	-1,	-1,	-1,	-1,	-1,	31,	-1,	-1,	-1,	-1,	-1,	-1,	12,	22,	29,	-1,	-1,	15,	-1,	-1,	-1,	11,	-1,	-1,	34,	-1,	-1,	9,	-1,	3,	-1,	-1,	-1,	-1|
7,	26,	-1,	-1,	-1,	2,	-1,	-1,	-1,	-1,	-1,	-1,	-1,	-1,	-1,	-1,	14,	6,	21,	-1,	18,	-1,	-1,	-1,	-1,	-1,	-1,	-1,	-1,	-1,	25,	-1,	-1,	-1,	-1,	36|
-1,	-1,	3,	-1,	-1,	-1,	-1,	-1,	-1,	-1,	34,	-1,	-1,	-1,	-1,	-1,	-1,	-1,	-1,	19,	-1,	-1,	-1,	-1,	-1,	-1,	14,	-1,	-1,	-1,	-1,	-1,	16,	-1,	-1,	7|
-1,	14,	28,	-1,	-1,	10,	-1,	4,	-1,	22,	29,	-1,	-1,	-1,	25,	-1,	-1,	-1,	-1,	-1,	-1,	-1,	-1,	-1,	17,	-1,	-1,	-1,	-1,	-1,	-1,	-1,	-1,	-1,	-1,	-1|
-1,	-1,	-1,	-1,	-1,	21,	-1,	7,	6,	-1,	16,	-1,	26,	4,	-1,	13,	-1,	-1,	-1,	-1,	14,	28,	-1,	-1,	35,	5,	-1,	31,	-1,	-1,	-1,	-1,	15,	-1,	-1,	-1|];
